Alu
4.05
1.0 0.0 0.0
0.0 1.0 0.0
0.0 0.0 1.0
Al
4
Direct
0.0 0.0 0.0
0.5 0.0 0.5
0.0 0.5 0.5
0.5 0.5 0.0
